c description: Tseitin formula on , with even charge
c generator: CNFgen (0.9.0)
c copyright: (C) 2012-2020 Massimo Lauria <massimo.lauria@uniroma1.it>
c url: https://massimolauria.net/cnfgen
c
p cnf 20 120
1 2 3 4 5 -6 0
1 2 3 4 -5 6 0
1 2 3 -4 5 6 0
1 2 3 -4 -5 -6 0
1 2 -3 4 5 6 0
1 2 -3 4 -5 -6 0
1 2 -3 -4 5 -6 0
1 2 -3 -4 -5 6 0
1 -2 3 4 5 6 0
1 -2 3 4 -5 -6 0
1 -2 3 -4 5 -6 0
1 -2 3 -4 -5 6 0
1 -2 -3 4 5 -6 0
1 -2 -3 4 -5 6 0
1 -2 -3 -4 5 6 0
1 -2 -3 -4 -5 -6 0
-1 2 3 4 5 6 0
-1 2 3 4 -5 -6 0
-1 2 3 -4 5 -6 0
-1 2 3 -4 -5 6 0
-1 2 -3 4 5 -6 0
-1 2 -3 4 -5 6 0
-1 2 -3 -4 5 6 0
-1 2 -3 -4 -5 -6 0
-1 -2 3 4 5 -6 0
-1 -2 3 4 -5 6 0
-1 -2 3 -4 5 6 0
-1 -2 3 -4 -5 -6 0
-1 -2 -3 4 5 6 0
-1 -2 -3 4 -5 -6 0
-1 -2 -3 -4 5 -6 0
-1 -2 -3 -4 -5 6 0
1 -7 0
-1 7 0
8 9 10 -11 0
8 9 -10 11 0
8 -9 10 11 0
8 -9 -10 -11 0
-8 9 10 11 0
-8 9 -10 -11 0
-8 -9 10 -11 0
-8 -9 -10 11 0
2 12 13 -14 0
2 12 -13 14 0
2 -12 13 14 0
2 -12 -13 -14 0
-2 12 13 14 0
-2 12 -13 -14 0
-2 -12 13 -14 0
-2 -12 -13 14 0
3 8 15 16 -17 0
3 8 15 -16 17 0
3 8 -15 16 17 0
3 8 -15 -16 -17 0
3 -8 15 16 17 0
3 -8 15 -16 -17 0
3 -8 -15 16 -17 0
3 -8 -15 -16 17 0
-3 8 15 16 17 0
-3 8 15 -16 -17 0
-3 8 -15 16 -17 0
-3 8 -15 -16 17 0
-3 -8 15 16 -17 0
-3 -8 15 -16 17 0
-3 -8 -15 16 17 0
-3 -8 -15 -16 -17 0
4 12 15 -18 0
4 12 -15 18 0
4 -12 15 18 0
4 -12 -15 -18 0
-4 12 15 18 0
-4 12 -15 -18 0
-4 -12 15 -18 0
-4 -12 -15 18 0
9 16 -19 0
9 -16 19 0
-9 16 19 0
-9 -16 -19 0
7 10 18 -20 0
7 10 -18 20 0
7 -10 18 20 0
7 -10 -18 -20 0
-7 10 18 20 0
-7 10 -18 -20 0
-7 -10 18 -20 0
-7 -10 -18 20 0
5 11 13 17 19 -20 0
5 11 13 17 -19 20 0
5 11 13 -17 19 20 0
5 11 13 -17 -19 -20 0
5 11 -13 17 19 20 0
5 11 -13 17 -19 -20 0
5 11 -13 -17 19 -20 0
5 11 -13 -17 -19 20 0
5 -11 13 17 19 20 0
5 -11 13 17 -19 -20 0
5 -11 13 -17 19 -20 0
5 -11 13 -17 -19 20 0
5 -11 -13 17 19 -20 0
5 -11 -13 17 -19 20 0
5 -11 -13 -17 19 20 0
5 -11 -13 -17 -19 -20 0
-5 11 13 17 19 20 0
-5 11 13 17 -19 -20 0
-5 11 13 -17 19 -20 0
-5 11 13 -17 -19 20 0
-5 11 -13 17 19 -20 0
-5 11 -13 17 -19 20 0
-5 11 -13 -17 19 20 0
-5 11 -13 -17 -19 -20 0
-5 -11 13 17 19 -20 0
-5 -11 13 17 -19 20 0
-5 -11 13 -17 19 20 0
-5 -11 13 -17 -19 -20 0
-5 -11 -13 17 19 20 0
-5 -11 -13 17 -19 -20 0
-5 -11 -13 -17 19 -20 0
-5 -11 -13 -17 -19 20 0
6 -14 0
-6 14 0